p tw 65 76
1 2
2 13
3 61
4 5
5 6
6 7
6 21
7 8
7 16
8 9
9 10
9 21
10 11
11 12
11 32
12 14
13 24
14 15
15 61
16 17
17 18
18 19
19 20
20 32
21 22
22 23
23 25
24 35
25 26
25 27
26 27
27 28
28 29
29 30
30 31
30 32
31 32
32 33
33 34
33 53
34 36
35 46
35 4
36 37
36 48
37 38
38 39
39 40
40 41
41 42
41 48
42 43
43 44
44 45
45 47
46 57
47 32
48 49
49 50
50 51
51 52
52 32
53 54
54 55
55 56
55 58
56 58
57 63
58 59
59 60
60 61
61 62
63 64
63 65
64 65
65 3
